(set-info :Origin "This instance was generated by: BanditFuzz-- an RL fuzzer for SMT solvers" )
(set-info :Author "Joe Scott, Fed Mora, Vijay Ganesh" )
(set-info :Contact "Joe Scott, joseph.scott@uwaterloo.ca")
; solvers/z3.sh
; 	time => 0.21830105781555176
; 	answer => err
; solvers/bitwuzla.sh
; 	time => 0.1600172519683838
; 	answer => err
; solvers/cvc4.sh
; 	time => 0.15626788139343262
; 	answer => err
(set-logic QF_BV)
(declare-const bool_0 Bool)
(declare-const bool_1 Bool)
(declare-const bool_2 Bool)
(declare-const bool_3 Bool)
(declare-const bool_4 Bool)
(declare-const bv_0 (_ BitVec 8))
(declare-const bv_1 (_ BitVec 8))
(declare-const bv_2 (_ BitVec 8))
(declare-const bv_3 (_ BitVec 8))
(declare-const bv_4 (_ BitVec 8))
(assert (bvule (bvadd (bvsdiv #x00000006  #x00000051 ) (bvmul bv_0 #x0000006a )) (bvadd (bvnand bv_3 bv_4) (bvxnor bv_1 bv_1))))
(assert (=> (xor (bvuge bv_3 #x00000017 ) (bvsge bv_4 #x00000075 )) (xor (not bool_2) (bvult #x00000093  #x0000007c ))))
(assert (not (not (or false bool_1))))
(assert (bvugt (bvshl (bvadd #x00000061  #x000000f3 ) (bvashr #x00000034  bv_1)) (bvand (bvsrem #x000000bc  #x00000083 ) (bvsrem bv_1 bv_1))))
(assert (bvuge (bvsdiv (bvsub bv_0 #x000000cb ) (bvnand bv_4 #x000000d7 )) (bvsmod (bvshl #x0000009c  #x000000ed ) (bvudiv #x00000068  bv_2))))
(check-sat)
(exit)
